(set-logic QF_UF)
(declare-fun car () Bool)
(declare-fun circuit () Bool)
(declare-fun clk () Bool)
(declare-fun prt () Bool)
(assert (not (not clk)))
(assert (or (or (not car) clk) (not clk)))
(assert (not (or (not car) clk)))
(check-sat)
(exit)
